c status 30 1469274320840
c status 21 1469274320840
c status 20 1469274320841
s td 15 20 36
b 1 26 27 25 16 4 1
b 2 28 29 30 4 1
b 3 29 30 16 4 1
b 4 30 25 16 4 1
b 5 16 4 20 1
b 6 4 20 11 1 8 5 17 19
b 7 24 2 7 9 12 13 17 19 23 35 36
b 8 32 31 11 22 3 6 5 14 19 33 34 35 36
b 9 31 18 11 22 1 3 6 5 10 12 14 19 21 33 34 35 36
b 10 18 20 11 22 1 3 6 5 10 12 13 14 19 21 23 33 34 35 36
b 11 20 11 22 1 3 6 8 5 10 12 13 14 17 19 21 23 33 34 35 36
b 12 11 22 1 3 6 8 15 5 10 12 13 14 17 19 21 23 33 34 35 36
b 13 1 3 6 8 15 5 7 10 12 13 14 17 19 21 23 33 34 35 36
b 14 3 6 8 15 5 7 9 10 12 13 14 17 19 21 23 33 34 35 36
b 15 5 2 7 9 10 12 13 14 17 19 21 23 33 34 35 36
1 4
4 3
3 2
4 5
5 6
6 11
11 12
11 10
12 13
13 14
10 9
14 15
9 8
15 7
